100
128
17
4
8
12
30
8
8
21
23
3
22
37
2
13
1
47
7
42
11
14
6
2
44
3
14
37
10
34
3
8
6
13
40
2
16
4
8
25
2
22
8
4
33
25
11
1
5
1
2
28
4
8
28
36
3
2
43
1
51
1
2
2
14
17
26
36
43
44
50
46
43
45
49
59
49
54
49
25
3
5
63
15
41
18
2
32
40
38
41
35
45
2
56
8
1
1
48
30
54
2